
Gurobi 9.1.1 (win64, Python) logging started Thu Jan 14 11:31:20 2021

Academic license - for non-commercial use only - expires 2021-03-15
Using license file C:\Users\macar\gurobi.lic
Set parameter LogFile to value gurobi.log
